40
0 1 0.61 0.27
0 2 0.65 0.14
0 3 0.58 0.2
0 4 0.54 0.31
0 5 0.59 0.19
0 6 0.7 0.29
0 7 0.27 0.07
0 8 0.56 0.19
0 9 0.44 0.3
0 10 0.76 0.19
0 11 0.28 0.16
0 12 0.49 0.27
0 13 0.52 0.2
0 14 0.67 0.11
0 15 0.53 0.05
0 16 0.43 0.19
0 17 0.38 0.28
0 18 0.69 0.24
0 19 0.54 0.2
0 20 0.67 0.29
0 21 0.65 0.19
0 22 0.68 0.21
0 23 0.5 0.24
0 24 0.7 0.26
0 25 0.74 0.27
0 26 0.45 0.26
0 27 0.57 0.15
0 28 0.61 0.2
0 29 0.7 0.23
0 30 0.57 0.07
0 31 0.35 0.25
0 32 0.48 0.19
0 33 0.4 0.27
0 34 0.67 0.27
0 35 0.49 0.21
0 36 0.64 0.13
0 37 0.51 0.08
0 38 0.64 0.21
0 39 0.4 0.1
1 2 0.5 0.27
1 3 0.62 0.25
1 4 0.54 0.14
1 5 0.58 0.17
1 6 0.56 0.31
1 7 0.65 0.25
1 8 0.78 0.32
1 9 0.78 0.35
1 10 0.41 0.08
1 11 0.58 0.28
1 12 0.69 0.31
1 13 0.34 0.32
1 14 0.61 0.24
1 15 0.55 0.22
1 16 0.54 0.19
1 17 0.56 0.32
1 18 0.72 0.2
1 19 0.64 0.12
1 20 0.74 0.28
1 21 0.36 0.32
1 22 0.68 0.22
1 23 0.5 0.27
1 24 0.25 0.24
1 25 0.5 0.34
1 26 0.49 0.17
1 27 0.58 0.31
1 28 0.86 0.23
1 29 0.64 0.3
1 30 0.65 0.24
1 31 0.52 0.17
1 32 0.34 0.19
1 33 0.8 0.33
1 34 0.56 0.31
1 35 0.67 0.23
1 36 0.5 0.26
1 37 0.7 0.25
1 38 0.72 0.24
1 39 0.48 0.22
2 3 0.37 0.2
2 4 0.74 0.3
2 5 0.76 0.19
2 6 0.71 0.35
2 7 0.63 0.21
2 8 0.5 0.24
2 9 0.55 0.3
2 10 0.58 0.19
2 11 0.37 0.18
2 12 0.43 0.3
2 13 0.63 0.2
2 14 0.41 0.24
2 15 0.62 0.09
2 16 0.58 0.19
2 17 0.86 0.31
2 18 0.51 0.31
2 19 0.8 0.23
2 20 0.62 0.32
2 21 0.39 0.25
2 22 0.55 0.19
2 23 0.67 0.24
2 24 0.46 0.28
2 25 0.52 0.34
2 26 0.57 0.28
2 27 0.64 0.23
2 28 0.89 0.25
2 29 0.64 0.33
2 30 0.65 0.07
2 31 0.7 0.24
2 32 0.62 0.23
2 33 0.81 0.38
2 34 0.53 0.35
2 35 0.51 0.22
2 36 0.54 0.23
2 37 0.39 0.06
2 38 0.66 0.21
2 39 0.52 0.24
3 4 0.7 0.18
3 5 0.39 0.09
3 6 0.69 0.28
3 7 0.53 0.16
3 8 0.54 0.18
3 9 0.18 0.1
3 10 0.58 0.18
3 11 0.6 0.04
3 12 0.79 0.22
3 13 0.74 0.25
3 14 0.77 0.11
3 15 0.74 0.18
3 16 0.56 0.16
3 17 0.54 0.22
3 18 0.48 0.14
3 19 0.66 0.14
3 20 0.58 0.12
3 21 0.76 0.18
3 22 0.32 0.04
3 23 0.3 0.2
3 24 0.42 0.16
3 25 0.8 0.27
3 26 0.48 0.27
3 27 0.67 0.09
3 28 0.62 0.15
3 29 0.4 0.18
3 30 0.28 0.18
3 31 0.54 0.09
3 32 0.47 0.2
3 33 0.44 0.18
3 34 0.82 0.15
3 35 0.53 0.02
3 36 0.62 0.1
3 37 0.64 0.17
3 38 0.51 0.02
3 39 0.54 0.24
4 5 0.4 0.22
4 6 0.74 0.41
4 7 0.66 0.28
4 8 0.45 0.29
4 9 0.61 0.28
4 10 0.59 0.21
4 11 0.64 0.15
4 12 0.51 0.28
4 13 0.56 0.37
4 14 0.82 0.22
4 15 0.5 0.29
4 16 0.78 0.27
4 17 0.74 0.29
4 18 0.48 0.25
4 19 0.8 0.17
4 20 0.63 0.14
4 21 0.6 0.32
4 22 0.79 0.17
4 23 0.71 0.22
4 24 0.63 0.33
4 25 0.63 0.38
4 26 0.32 0.15
4 27 0.77 0.2
4 28 0.6 0.25
4 29 0.59 0.26
4 30 0.58 0.31
4 31 0.46 0.12
4 32 0.6 0.29
4 33 0.49 0.32
4 34 0.5 0.27
4 35 0.65 0.16
4 36 0.67 0.24
4 37 0.63 0.3
4 38 0.48 0.19
4 39 0.82 0.27
5 6 0.6 0.31
5 7 0.54 0.19
5 8 0.54 0.24
5 9 0.57 0.19
5 10 0.32 0.09
5 11 0.57 0.13
5 12 0.78 0.26
5 13 0.64 0.33
5 14 0.52 0.16
5 15 0.62 0.14
5 16 0.7 0.24
5 17 0.52 0.27
5 18 0.44 0.21
5 19 0.62 0.13
5 20 0.43 0.21
5 21 0.58 0.22
5 22 0.57 0.13
5 23 0.54 0.28
5 24 0.81 0.25
5 25 0.76 0.23
5 26 0.52 0.18
5 27 0.8 0.14
5 28 0.49 0.06
5 29 0.65 0.22
5 30 0.24 0.12
5 31 0.24 0.14
5 32 0.38 0.19
5 33 0.41 0.23
5 34 0.71 0.24
5 35 0.66 0.11
5 36 0.54 0.14
5 37 0.78 0.13
5 38 0.46 0.11
5 39 0.64 0.23
6 7 0.64 0.36
6 8 0.58 0.32
6 9 0.52 0.21
6 10 0.79 0.35
6 11 0.42 0.31
6 12 0.58 0.24
6 13 0.72 0.32
6 14 0.63 0.24
6 15 0.55 0.26
6 16 0.61 0.24
6 17 0.57 0.25
6 18 0.7 0.42
6 19 0.68 0.37
6 20 0.75 0.38
6 21 0.7 0.3
6 22 0.66 0.27
6 23 0.62 0.3
6 24 0.42 0.34
6 25 0.58 0.34
6 26 0.52 0.26
6 27 0.64 0.36
6 28 0.64 0.3
6 29 0.5 0.28
6 30 0.43 0.28
6 31 0.69 0.32
6 32 0.22 0.12
6 33 0.52 0.29
6 34 0.24 0.24
6 35 0.46 0.28
6 36 0.38 0.22
6 37 0.48 0.29
6 38 0.4 0.26
6 39 0.47 0.39
7 8 0.6 0.26
7 9 0.64 0.26
7 10 0.8 0.26
7 11 0.55 0.13
7 12 0.73 0.2
7 13 0.31 0.22
7 14 0.5 0.18
7 15 0.49 0.12
7 16 0.37 0.25
7 17 0.47 0.21
7 18 0.6 0.3
7 19 0.66 0.22
7 20 0.5 0.26
7 21 0.5 0.12
7 22 0.66 0.2
7 23 0.58 0.18
7 24 0.55 0.19
7 25 0.47 0.26
7 26 0.72 0.28
7 27 0.6 0.08
7 28 0.34 0.13
7 29 0.6 0.16
7 30 0.3 0.14
7 31 0.55 0.25
7 32 0.6 0.26
7 33 0.67 0.3
7 34 0.4 0.21
7 35 0.22 0.14
7 36 0.58 0.17
7 37 0.24 0.15
7 38 0.73 0.18
7 39 0.67 0.12
8 9 0.55 0.19
8 10 0.56 0.26
8 11 0.52 0.14
8 12 0.56 0.16
8 13 0.7 0.27
8 14 0.81 0.08
8 15 0.5 0.19
8 16 0.76 0.26
8 17 0.4 0.17
8 18 0.52 0.14
8 19 0.65 0.22
8 20 0.82 0.26
8 21 0.6 0.18
8 22 0.44 0.19
8 23 0.48 0.22
8 24 0.73 0.28
8 25 0.67 0.24
8 26 0.62 0.32
8 27 0.7 0.19
8 28 0.69 0.18
8 29 0.14 0.12
8 30 0.3 0.17
8 31 0.66 0.24
8 32 0.58 0.2
8 33 0.62 0.27
8 34 0.42 0.24
8 35 0.72 0.2
8 36 0.67 0.1
8 37 0.7 0.18
8 38 0.56 0.17
8 39 0.64 0.29
9 10 0.71 0.28
9 11 0.72 0.14
9 12 0.61 0.14
9 13 0.56 0.25
9 14 0.72 0.21
9 15 0.61 0.28
9 16 0.6 0.26
9 17 0.36 0.15
9 18 0.51 0.24
9 19 0.52 0.24
9 20 0.52 0.22
9 21 0.86 0.26
9 22 0.5 0.14
9 23 0.48 0.2
9 24 0.6 0.26
9 25 0.64 0.37
9 26 0.4 0.22
9 27 0.68 0.19
9 28 0.44 0.2
9 29 0.58 0.18
9 30 0.46 0.28
9 31 0.58 0.19
9 32 0.6 0.26
9 33 0.26 0.08
9 34 0.66 0.25
9 35 0.49 0.12
9 36 0.44 0.2
9 37 0.76 0.27
9 38 0.33 0.12
9 39 0.61 0.27
10 11 0.48 0.22
10 12 0.46 0.24
10 13 0.75 0.24
10 14 0.84 0.25
10 15 0.58 0.14
10 16 0.51 0.25
10 17 0.66 0.25
10 18 0.76 0.12
10 19 0.37 0.04
10 20 0.56 0.27
10 21 0.38 0.25
10 22 0.52 0.14
10 23 0.28 0.19
10 24 0.66 0.26
10 25 0.49 0.26
10 26 0.54 0.09
10 27 0.62 0.23
10 28 0.56 0.15
10 29 0.42 0.22
10 30 0.56 0.16
10 31 0.56 0.09
10 32 0.7 0.23
10 33 0.52 0.25
10 34 0.55 0.26
10 35 0.58 0.2
10 36 0.75 0.23
10 37 0.62 0.17
10 38 0.78 0.16
10 39 0.54 0.14
11 12 0.46 0.26
11 13 0.8 0.29
11 14 0.39 0.07
11 15 0.25 0.14
11 16 0.71 0.12
11 17 0.61 0.26
11 18 0.69 0.18
11 19 0.76 0.18
11 20 0.72 0.16
11 21 0.7 0.17
11 22 0.66 0.08
11 23 0.63 0.24
11 24 0.65 0.2
11 25 0.62 0.23
11 26 0.63 0.3
11 27 0.67 0.05
11 28 0.67 0.13
11 29 0.66 0.22
11 30 0.73 0.16
11 31 0.33 0.13
11 32 0.58 0.19
11 33 0.48 0.22
11 34 0.59 0.19
11 35 0.57 0.06
11 36 0.42 0.09
11 37 0.73 0.17
11 38 0.61 0.06
11 39 0.5 0.21
12 13 0.42 0.11
12 14 0.64 0.21
12 15 0.5 0.25
12 16 0.74 0.24
12 17 0.68 0.01
12 18 0.42 0.28
12 19 0.37 0.2
12 20 0.56 0.14
12 21 0.74 0.27
12 22 0.48 0.18
12 23 0.56 0.06
12 24 0.44 0.24
12 25 0.37 0.26
12 26 0.6 0.16
12 27 0.7 0.28
12 28 0.46 0.27
12 29 0.42 0.04
12 30 0.64 0.27
12 31 0.79 0.18
12 32 0.76 0.12
12 33 0.7 0.15
12 34 0.6 0.24
12 35 0.68 0.21
12 36 0.67 0.19
12 37 0.82 0.28
12 38 0.81 0.2
12 39 0.83 0.19
13 14 0.53 0.24
13 15 0.64 0.25
13 16 0.68 0.32
13 17 0.7 0.12
13 18 0.52 0.28
13 19 0.62 0.2
13 20 0.58 0.25
13 21 0.62 0.34
13 22 0.74 0.29
13 23 0.78 0.17
13 24 0.59 0.24
13 25 0.6 0.37
13 26 0.68 0.27
13 27 0.76 0.26
13 28 0.65 0.34
13 29 0.6 0.15
13 30 0.6 0.23
13 31 0.58 0.25
13 32 0.63 0.2
13 33 0.62 0.24
13 34 0.66 0.31
13 35 0.53 0.23
13 36 0.47 0.26
13 37 0.55 0.24
13 38 0.6 0.27
13 39 0.65 0.1
14 15 0.64 0.16
14 16 0.43 0.19
14 17 0.72 0.2
14 18 0.44 0.22
14 19 0.64 0.22
14 20 0.61 0.18
14 21 0.56 0.1
14 22 0.73 0.12
14 23 0.78 0.19
14 24 0.36 0.2
14 25 0.59 0.16
14 26 0.6 0.26
14 27 0.74 0.12
14 28 0.78 0.1
14 29 0.73 0.2
14 30 0.6 0.18
14 31 0.48 0.17
14 32 0.52 0.12
14 33 0.46 0.27
14 34 0.39 0.16
14 35 0.49 0.13
14 36 0.66 0.02
14 37 0.74 0.19
14 38 0.51 0.1
14 39 0.62 0.21
15 16 0.53 0.14
15 17 0.58 0.26
15 18 0.44 0.26
15 19 0.66 0.18
15 20 0.54 0.27
15 21 0.63 0.22
15 22 0.62 0.16
15 23 0.46 0.19
15 24 0.4 0.31
15 25 0.5 0.28
15 26 0.44 0.23
15 27 0.67 0.19
15 28 0.42 0.2
15 29 0.64 0.28
15 30 0.48 0.02
15 31 0.58 0.21
15 32 0.33 0.14
15 33 0.54 0.32
15 34 0.34 0.32
15 35 0.43 0.2
15 36 0.17 0.14
15 37 0.54 0.03
15 38 0.36 0.18
15 39 0.54 0.15
16 17 0.51 0.25
16 18 0.53 0.3
16 19 0.82 0.29
16 20 0.73 0.28
16 21 0.28 0.23
16 22 0.6 0.2
16 23 0.5 0.3
16 24 0.66 0.32
16 25 0.52 0.26
16 26 0.72 0.22
16 27 0.53 0.17
16 28 0.65 0.25
16 29 0.71 0.28
16 30 0.46 0.12
16 31 0.7 0.25
16 32 0.52 0.12
16 33 0.7 0.34
16 34 0.64 0.31
16 35 0.15 0.14
16 36 0.36 0.21
16 37 0.61 0.13
16 38 0.44 0.18
16 39 0.42 0.29
17 18 0.52 0.29
17 19 0.68 0.21
17 20 0.48 0.15
17 21 0.51 0.26
17 22 0.48 0.19
17 23 0.58 0.07
17 24 0.7 0.25
17 25 0.41 0.27
17 26 0.76 0.17
17 27 0.74 0.28
17 28 0.46 0.26
17 29 0.54 0.05
17 30 0.59 0.28
17 31 0.28 0.19
17 32 0.79 0.13
17 33 0.62 0.16
17 34 0.33 0.23
17 35 0.36 0.2
17 36 0.74 0.18
17 37 0.62 0.29
17 38 0.57 0.21
17 39 0.78 0.18
18 19 0.62 0.08
18 20 0.34 0.26
18 21 0.55 0.32
18 22 0.48 0.18
18 23 0.77 0.31
18 24 0.58 0.14
18 25 0.79 0.3
18 26 0.68 0.21
18 27 0.4 0.23
18 28 0.56 0.27
18 29 0.56 0.26
18 30 0.44 0.24
18 31 0.52 0.13
18 32 0.52 0.34
18 33 0.71 0.29
18 34 0.46 0.29
18 35 0.38 0.16
18 36 0.61 0.24
18 37 0.84 0.25
18 38 0.52 0.16
18 39 0.56 0.18
19 20 0.6 0.26
19 21 0.68 0.28
19 22 0.56 0.1
19 23 0.42 0.23
19 24 0.76 0.22
19 25 0.3 0.22
19 26 0.68 0.13
19 27 0.72 0.23
19 28 0.76 0.19
19 29 0.62 0.19
19 30 0.8 0.2
19 31 0.63 0.05
19 32 0.48 0.27
19 33 0.74 0.21
19 34 0.44 0.22
19 35 0.72 0.16
19 36 0.63 0.2
19 37 0.76 0.21
19 38 0.62 0.12
19 39 0.65 0.1
20 21 0.56 0.28
20 22 0.61 0.16
20 23 0.73 0.08
20 24 0.63 0.28
20 25 0.52 0.28
20 26 0.82 0.18
20 27 0.72 0.21
20 28 0.58 0.27
20 29 0.68 0.18
20 30 0.67 0.29
20 31 0.66 0.21
20 32 0.53 0.26
20 33 0.41 0.29
20 34 0.51 0.27
20 35 0.68 0.14
20 36 0.37 0.2
20 37 0.58 0.29
20 38 0.56 0.14
20 39 0.55 0.21
21 22 0.7 0.18
21 23 0.63 0.29
21 24 0.61 0.3
21 25 0.6 0.26
21 26 0.52 0.24
21 27 0.33 0.2
21 28 0.62 0.16
21 29 0.62 0.28
21 30 0.74 0.24
21 31 0.69 0.23
21 32 0.48 0.18
21 33 0.6 0.18
21 34 0.7 0.26
21 35 0.43 0.2
21 36 0.46 0.08
21 37 0.74 0.25
21 38 0.68 0.16
21 39 0.5 0.24
22 23 0.62 0.24
22 24 0.74 0.16
22 25 0.56 0.28
22 26 0.8 0.23
22 27 0.49 0.13
22 28 0.36 0.18
22 29 0.3 0.14
22 30 0.51 0.14
22 31 0.33 0.05
22 32 0.71 0.2
22 33 0.75 0.22
22 34 0.53 0.19
22 35 0.47 0.06
22 36 0.55 0.1
22 37 0.55 0.13
22 38 0.33 0.02
22 39 0.54 0.2
23 24 0.72 0.3
23 25 0.5 0.2
23 26 0.78 0.1
23 27 0.58 0.25
23 28 0.72 0.29
23 29 0.34 0.1
23 30 0.58 0.21
23 31 0.3 0.24
23 32 0.52 0.18
23 33 0.62 0.21
23 34 0.52 0.3
23 35 0.39 0.22
23 36 0.63 0.21
23 37 0.34 0.22
23 38 0.59 0.22
23 39 0.75 0.25
24 25 0.46 0.26
24 26 0.74 0.35
24 27 0.6 0.25
24 28 0.66 0.3
24 29 0.59 0.28
24 30 0.6 0.3
24 31 0.77 0.21
24 32 0.54 0.24
24 33 0.76 0.34
24 34 0.66 0.31
24 35 0.56 0.18
24 36 0.57 0.22
24 37 0.56 0.29
24 38 0.7 0.14
24 39 0.68 0.31
25 26 0.69 0.3
25 27 0.63 0.28
25 28 0.51 0.25
25 29 0.71 0.3
25 30 0.7 0.3
25 31 0.69 0.27
25 32 0.39 0.22
25 33 0.6 0.29
25 34 0.34 0.13
25 35 0.67 0.29
25 36 0.33 0.18
25 37 0.62 0.3
25 38 0.44 0.26
25 39 0.46 0.32
26 27 0.45 0.27
26 28 0.55 0.24
26 29 0.75 0.2
26 30 0.56 0.24
26 31 0.76 0.18
26 32 0.3 0.14
26 33 0.58 0.3
26 34 0.48 0.35
26 35 0.67 0.29
26 36 0.46 0.24
26 37 0.64 0.25
26 38 0.68 0.25
26 39 0.62 0.23
27 28 0.46 0.08
27 29 0.58 0.24
27 30 0.57 0.19
27 31 0.65 0.18
27 32 0.54 0.24
27 33 0.64 0.25
27 34 0.72 0.24
27 35 0.38 0.11
27 36 0.5 0.14
27 37 0.52 0.18
27 38 0.37 0.11
27 39 0.17 0.16
28 29 0.64 0.28
28 30 0.54 0.18
28 31 0.69 0.2
28 32 0.52 0.18
28 33 0.62 0.17
28 34 0.46 0.18
28 35 0.54 0.17
28 36 0.36 0.08
28 37 0.58 0.19
28 38 0.58 0.16
28 39 0.63 0.24
29 30 0.44 0.28
29 31 0.63 0.14
29 32 0.45 0.16
29 33 0.48 0.19
29 34 0.56 0.28
29 35 0.73 0.2
29 36 0.58 0.22
29 37 0.6 0.27
29 38 0.63 0.16
29 39 0.66 0.23
30 31 0.48 0.19
30 32 0.32 0.16
30 33 0.65 0.34
30 34 0.6 0.33
30 35 0.52 0.2
30 36 0.48 0.16
30 37 0.54 0.01
30 38 0.5 0.16
30 39 0.4 0.17
31 32 0.62 0.25
31 33 0.42 0.2
31 34 0.48 0.24
31 35 0.64 0.11
31 36 0.51 0.15
31 37 0.64 0.18
31 38 0.29 0.07
31 39 0.7 0.15
32 33 0.62 0.27
32 34 0.46 0.28
32 35 0.66 0.22
32 36 0.16 0.1
32 37 0.7 0.17
32 38 0.38 0.18
32 39 0.69 0.29
33 34 0.7 0.33
33 35 0.65 0.2
33 36 0.65 0.25
33 37 0.56 0.35
33 38 0.43 0.2
33 39 0.68 0.31
34 35 0.49 0.17
34 36 0.51 0.18
34 37 0.53 0.32
34 38 0.44 0.17
34 39 0.64 0.21
35 36 0.51 0.12
35 37 0.46 0.19
35 38 0.59 0.04
35 39 0.47 0.26
36 37 0.71 0.17
36 38 0.22 0.08
36 39 0.6 0.23
37 38 0.66 0.15
37 39 0.69 0.18
38 39 0.52 0.22
